p edge 70 467
e 1 4
e 1 10
e 1 14
e 1 20
e 1 21
e 1 27
e 1 36
e 1 40
e 1 45
e 1 49
e 1 63
e 1 68
e 1 69
e 2 7
e 2 8
e 2 9
e 2 14
e 2 22
e 2 35
e 2 44
e 2 45
e 2 48
e 2 51
e 2 59
e 2 65
e 2 66
e 2 70
e 3 10
e 3 15
e 3 16
e 3 20
e 3 29
e 3 42
e 3 44
e 3 51
e 3 53
e 3 55
e 3 60
e 3 68
e 4 8
e 4 25
e 4 44
e 4 59
e 4 60
e 4 61
e 4 63
e 4 65
e 4 69
e 5 9
e 5 12
e 5 16
e 5 21
e 5 30
e 5 34
e 5 38
e 5 48
e 5 49
e 5 59
e 5 60
e 5 67
e 5 68
e 6 9
e 6 19
e 6 23
e 6 24
e 6 33
e 6 44
e 6 48
e 6 49
e 6 51
e 6 61
e 6 64
e 6 67
e 7 8
e 7 11
e 7 16
e 7 17
e 7 24
e 7 26
e 7 27
e 7 29
e 7 42
e 7 49
e 7 52
e 7 69
e 8 13
e 8 34
e 8 39
e 8 43
e 8 53
e 8 56
e 8 62
e 8 64
e 8 68
e 9 14
e 9 16
e 9 17
e 9 21
e 9 32
e 9 36
e 9 38
e 9 42
e 9 45
e 9 46
e 9 50
e 9 57
e 9 58
e 9 60
e 9 61
e 9 62
e 9 70
e 10 12
e 10 13
e 10 21
e 10 26
e 10 30
e 10 33
e 10 35
e 10 44
e 10 64
e 11 19
e 11 22
e 11 33
e 11 34
e 11 36
e 11 59
e 11 61
e 11 62
e 11 64
e 11 65
e 11 69
e 12 15
e 12 20
e 12 23
e 12 26
e 12 37
e 12 38
e 12 43
e 12 44
e 12 45
e 12 50
e 12 51
e 12 54
e 12 60
e 12 66
e 12 67
e 13 16
e 13 17
e 13 21
e 13 38
e 13 40
e 13 44
e 13 60
e 13 64
e 13 67
e 14 20
e 14 22
e 14 26
e 14 28
e 14 40
e 14 53
e 14 55
e 15 17
e 15 27
e 15 33
e 15 37
e 15 39
e 15 41
e 15 45
e 15 47
e 15 48
e 15 50
e 15 57
e 15 59
e 15 62
e 15 70
e 16 17
e 16 26
e 16 33
e 16 35
e 16 40
e 16 49
e 16 56
e 16 64
e 16 68
e 17 23
e 17 31
e 17 38
e 17 43
e 17 44
e 17 54
e 17 55
e 17 64
e 17 66
e 17 67
e 18 26
e 18 31
e 18 35
e 18 40
e 18 44
e 18 49
e 18 52
e 18 58
e 18 59
e 18 60
e 19 27
e 19 43
e 19 46
e 19 47
e 19 56
e 20 23
e 20 26
e 20 28
e 20 30
e 20 34
e 20 35
e 20 45
e 20 47
e 20 50
e 20 52
e 20 54
e 20 57
e 21 27
e 21 29
e 21 30
e 21 36
e 21 37
e 21 42
e 21 50
e 21 53
e 21 56
e 21 60
e 21 69
e 21 70
e 22 28
e 22 37
e 22 40
e 22 42
e 22 50
e 22 53
e 22 55
e 22 59
e 22 68
e 23 26
e 23 28
e 23 30
e 23 32
e 23 37
e 23 40
e 23 43
e 23 45
e 23 47
e 23 48
e 23 49
e 23 53
e 23 64
e 24 29
e 24 31
e 24 32
e 24 34
e 24 35
e 24 38
e 24 39
e 24 40
e 24 46
e 24 64
e 25 31
e 25 37
e 25 40
e 25 42
e 25 55
e 25 62
e 25 63
e 25 64
e 26 27
e 26 33
e 26 36
e 26 38
e 26 40
e 26 42
e 26 45
e 26 51
e 26 58
e 26 63
e 26 64
e 26 68
e 27 28
e 27 29
e 27 32
e 27 34
e 27 45
e 27 50
e 27 55
e 27 57
e 27 61
e 27 66
e 27 69
e 28 35
e 28 40
e 28 49
e 28 53
e 28 54
e 28 62
e 28 67
e 29 34
e 29 38
e 29 39
e 29 57
e 29 69
e 30 33
e 30 37
e 30 40
e 30 46
e 30 53
e 30 57
e 30 59
e 30 68
e 30 70
e 31 32
e 31 40
e 31 41
e 31 43
e 31 44
e 31 46
e 31 48
e 31 56
e 31 61
e 31 64
e 31 67
e 32 38
e 32 41
e 32 47
e 32 52
e 32 64
e 32 66
e 33 35
e 33 52
e 33 59
e 34 35
e 34 36
e 34 37
e 34 38
e 34 40
e 34 42
e 34 49
e 34 50
e 34 53
e 34 60
e 34 61
e 34 63
e 34 65
e 35 39
e 35 47
e 35 49
e 35 54
e 35 57
e 35 58
e 36 39
e 36 42
e 36 53
e 36 60
e 36 62
e 37 38
e 37 44
e 37 45
e 37 47
e 37 50
e 38 43
e 38 44
e 38 52
e 38 55
e 38 58
e 38 66
e 38 69
e 39 49
e 39 51
e 39 65
e 39 66
e 39 67
e 40 51
e 40 55
e 40 57
e 41 43
e 41 46
e 41 51
e 41 60
e 41 68
e 42 49
e 42 50
e 42 53
e 42 55
e 42 59
e 42 65
e 42 69
e 43 44
e 43 54
e 43 63
e 43 64
e 43 69
e 44 45
e 44 69
e 44 70
e 45 53
e 45 59
e 45 61
e 45 67
e 46 48
e 46 52
e 46 53
e 46 56
e 46 62
e 46 63
e 46 64
e 46 70
e 47 59
e 47 62
e 47 65
e 48 58
e 48 68
e 49 50
e 49 52
e 49 54
e 49 59
e 49 61
e 50 55
e 50 57
e 50 58
e 51 54
e 51 55
e 51 61
e 51 62
e 51 66
e 52 60
e 53 55
e 53 61
e 53 67
e 53 68
e 53 69
e 54 65
e 55 56
e 55 67
e 56 59
e 56 62
e 56 69
e 57 59
e 57 61
e 57 65
e 57 66
e 57 68
e 57 70
e 58 59
e 58 64
e 58 65
e 58 66
e 58 68
e 59 60
e 59 67
e 60 62
e 61 63
e 61 65
e 62 63
e 62 67
e 62 68
e 63 67
e 64 69
e 67 69
e 68 69